Academic license - for non-commercial use only
Optimize a model with 30075 rows, 160051 columns and 335123 nonzeros
Variable types: 160025 continuous, 26 integer (0 binary)
Coefficient statistics:
  Matrix range     [1e+00, 7e+02]
  Objective range  [5e-02, 8e+01]
  Bounds range     [6e-04, 1e+01]
  RHS range        [0e+00, 0e+00]
Found heuristic solution: objective 1144.7008000
Presolve removed 7626 rows and 74101 columns
Presolve time: 0.79s
Presolved: 22449 rows, 85950 columns, 196181 nonzeros
Variable types: 85924 continuous, 26 integer (26 binary)
Deterministic concurrent LP optimizer: primal and dual simplex
Showing first log only...

Concurrent spin time: 0.00s

Solved with dual simplex
Root relaxation: objective 5.600908e+02, 12171 iterations, 0.67 seconds
    Nodes    |    Current Node    |     Objective Bounds      |     Work
 Expl Unexpl |  Obj  Depth IntInf | Incumbent    BestBd   Gap | It/Node Time

     0     0  560.09084    0    8 1144.70080  560.09084  51.1%     -    1s
H    0     0                     589.9588440  560.09084  5.06%     -    1s
     0     0  560.09490    0   20  589.95884  560.09490  5.06%     -    2s
     0     0  560.10808    0   18  589.95884  560.10808  5.06%     -    3s
     0     0  560.13066    0   17  589.95884  560.13066  5.06%     -    3s
     0     0  560.13082    0   17  589.95884  560.13082  5.06%     -    3s
     0     0  560.15886    0   10  589.95884  560.15886  5.05%     -    6s
     0     0  560.16179    0    8  589.95884  560.16179  5.05%     -    8s
     0     0  560.17020    0    8  589.95884  560.17020  5.05%     -   12s
     0     0  560.23214    0    8  589.95884  560.23214  5.04%     -   16s
     0     0  560.45015    0    8  589.95884  560.45015  5.00%     -   23s
     0     0  560.69308    0    8  589.95884  560.69308  4.96%     -   30s
     0     0  561.23395    0    8  589.95884  561.23395  4.87%     -   39s
     0     0  561.81816    0    8  589.95884  561.81816  4.77%     -   48s
     0     0  562.72028    0    8  589.95884  562.72028  4.62%     -   60s
     0     0  563.59915    0    8  589.95884  563.59915  4.47%     -   69s
     0     0  564.03029    0    8  589.95884  564.03029  4.39%     -   81s
     0     0  564.64659    0    8  589.95884  564.64659  4.29%     -   90s
     0     0  564.98458    0    8  589.95884  564.98458  4.23%     -  103s
     0     0  565.74006    0    8  589.95884  565.74006  4.11%     -  116s
     0     0  566.36270    0    8  589.95884  566.36270  4.00%     -  133s
     0     0  567.52362    0    8  589.95884  567.52362  3.80%     -  154s
     0     0  568.37574    0    8  589.95884  568.37574  3.66%     -  180s
     0     0  569.21254    0    8  589.95884  569.21254  3.52%     -  223s
     0     0  570.09056    0    8  589.95884  570.09056  3.37%     -  248s
     0     0  571.28219    0    8  589.95884  571.28219  3.17%     -  273s
     0     0  572.04505    0    8  589.95884  572.04505  3.04%     -  289s
     0     0  572.54882    0    8  589.95884  572.54882  2.95%     -  306s
     0     0  573.67856    0    8  589.95884  573.67856  2.76%     -  328s
     0     0  575.07091    0    8  589.95884  575.07091  2.52%     -  346s
     0     0  575.94906    0    8  589.95884  575.94906  2.37%     -  371s
     0     0  577.38103    0    8  589.95884  577.38103  2.13%     -  408s
     0     0  577.93068    0    8  589.95884  577.93068  2.04%     -  428s
     0     0  578.29346    0    8  589.95884  578.29346  1.98%     -  447s
     0     0  578.53317    0    8  589.95884  578.53317  1.94%     -  456s
     0     0  578.57198    0    8  589.95884  578.57198  1.93%     -  464s
     0     0  578.58560    0    7  589.95884  578.58560  1.93%     -  466s
     0     0  578.59020    0    6  589.95884  578.59020  1.93%     -  467s
     0     0  578.59166    0    6  589.95884  578.59166  1.93%     -  468s
     0     0  578.59174    0    6  589.95884  578.59174  1.93%     -  468s
     0     0  583.68010    0    5  589.95884  583.68010  1.06%     -  546s
H    0     0                     585.8458169  583.68010  0.37%     -  546s
     0     0  583.69689    0    5  585.84582  583.69689  0.37%     -  547s
     0     0  583.88683    0    6  585.84582  583.88683  0.33%     -  549s
     0     0  583.88683    0    6  585.84582  583.88683  0.33%     -  549s
     0     2  583.88683    0    6  585.84582  583.88683  0.33%     -  554s
     1     2     cutoff    1       585.84582  583.88691  0.33%   6.0  556s
     5     2     cutoff    3       585.84582  583.96029  0.32%  1163  561s
     9     2     cutoff    5       585.84582  584.20114  0.28%  1553  568s
H   10     2                     585.4460991  584.20114  0.21%  1398  568s
    13     2     cutoff    7       585.44610  584.42382  0.17%  1829  579s
    15     3  585.34288    8    4  585.44610  585.34251  0.02%  2724  580s
    23     2 infeasible   12       585.44610  585.37451  0.01%  2018  585s
Cutting planes:
  Implied bound: 60888
  MIR: 63
  Flow cover: 43
Explored 25 nodes (500594 simplex iterations) in 585.57 seconds
Thread count was 4 (of 4 available processors)

Solution count 4: 585.446 585.846 589.959 1144.7 

Optimal solution found (tolerance 1.00e-04)
Best objective 5.854460991022e+02, best bound 5.854120069764e+02, gap 0.0058%
Gurobi status= 2